c Pigeonhole principle: 3 pigeons, 2 holes (unsatisfiable)
c Variables: x_ij means pigeon i goes in hole j
c x11, x12, x21, x22, x31, x32 = variables 1-6
p cnf 6 9
1 2 0
3 4 0  
5 6 0
-1 -3 0
-1 -5 0
-3 -5 0
-2 -4 0
-2 -6 0
-4 -6 0
